data;


param d:= 100;
param r:=5;
param p:=0.900000;
param M:=1000;
param U:=
         1         1       -1.788690e+00
         2         1       -1.656392e+00
         3         1       -1.128648e+00
         4         1        9.662661e-03
         5         1       -2.994470e-01
         6         1        3.759079e-01
         7         1       -1.522425e+00
         8         1        4.615227e-01
         9         1       -1.432702e+00
        10         1       -4.692379e-01
        11         1        2.317247e+00
        12         1        4.506990e-01
        13         1        2.509760e+00
        14         1        7.265167e-01
        15         1        1.068768e-01
        16         1        2.587455e-01
        17         1        1.889847e+00
        18         1        4.820296e-01
        19         1        1.028133e+00
        20         1        4.169240e-03
        21         1       -3.246463e-01
        22         1       -2.166634e-01
        23         1       -4.619299e-01
        24         1       -5.711029e-02
        25         1        9.179736e-01
        26         1       -7.805530e-02
        27         1       -1.130748e+00
        28         1       -5.959028e-01
        29         1       -5.895195e-01
        30         1       -1.049864e-01
        31         1       -1.135593e+00
        32         1       -1.559171e-01
        33         1       -1.457303e+00
        34         1       -8.271268e-01
        35         1        9.650657e-02
        36         1       -7.992723e-01
        37         1       -8.935644e-01
        38         1       -4.752918e-01
        39         1       -6.117611e-02
        40         1        6.632287e-01
        41         1        3.201565e-02
        42         1       -1.770946e+00
        43         1        6.428550e-01
        44         1       -7.663304e-01
        45         1        2.669140e-01
        46         1        1.014343e+00
        47         1        6.338817e-02
        48         1        1.032514e+00
        49         1       -3.213918e-01
        50         1       -5.918743e-02
        51         1       -5.665820e-01
        52         1        3.571206e-01
        53         1        4.752504e-01
        54         1        2.504716e+00
        55         1       -3.213362e-01
        56         1        1.911315e+00
        57         1       -1.965609e+00
        58         1       -8.123442e-01
        59         1        2.905716e-01
        60         1       -6.864232e-01
        61         1       -1.850182e+00
        62         1       -1.273902e+00
        63         1       -5.884937e-01
        64         1       -1.702010e+00
        65         1       -8.106257e-01
        66         1       -1.694002e-01
        67         1        5.779971e-01
        68         1        2.849239e-01
        69         1       -1.339024e+00
        70         1       -5.244745e-01
        71         1       -4.633348e-01
        72         1       -3.162949e-01
        73         1       -8.532308e-01
        74         1        8.572599e-01
        75         1        1.686195e-01
        76         1       -9.495522e-01
        77         1       -6.167854e-02
        78         1        1.323362e+00
        79         1        1.232582e+00
        80         1       -8.274459e-01
        81         1        4.187752e-01
        82         1       -2.973769e-01
        83         1       -1.716748e+00
        84         1        1.545564e-01
        85         1        6.668759e-01
        86         1       -5.308108e-01
        87         1        6.360008e-01
        88         1        1.802071e+00
        89         1        8.939303e-01
        90         1        8.271202e-01
        91         1       -1.388240e+00
        92         1       -2.480199e-01
        93         1        2.931699e-01
        94         1       -6.144209e-01
        95         1        1.317301e+00
        96         1        2.192194e-01
        97         1       -1.988304e+00
        98         1       -1.421755e-02
        99         1       -8.687715e-01
       100         1        5.774717e-01
         1         2        8.280235e-01
         2         2        1.024977e+00
         3         2       -7.232037e-01
         4         2        3.226639e-01
         5         2       -8.520143e-01
         6         2       -1.386812e+00
         7         2       -8.142293e-01
         8         2        2.409741e-01
         9         2        6.989067e-01
        10         2       -1.011631e-01
        11         2        1.322275e+00
        12         2       -1.313003e+00
        13         2        1.801773e-01
        14         2       -1.829450e-01
        15         2        7.287340e-01
        16         2        2.101933e-01
        17         2        1.459549e+00
        18         2        2.087197e+00
        19         2       -1.112153e+00
        20         2        7.804341e-01
        21         2       -4.574172e-01
        22         2        1.720153e+00
        23         2       -2.040628e+00
        24         2       -2.041582e+00
        25         2       -9.150473e-01
        26         2       -1.548479e-01
        27         2       -2.131106e-01
        28         2        1.442665e+00
        29         2        6.514091e-01
        30         2        6.245997e-01
        31         2       -1.763164e+00
        32         2       -9.963944e-01
        33         2        1.348617e+00
        34         2        1.197069e+00
        35         2       -2.285099e-01
        36         2        3.406038e-01
        37         2        7.666562e-01
        38         2        2.448961e+00
        39         2       -1.307854e+00
        40         2       -2.210549e+00
        41         2       -1.437563e+00
        42         2       -1.299273e+00
        43         2        5.304609e-01
        44         2        1.731205e+00
        45         2       -1.032669e+00
        46         2       -1.947967e+00
        47         2       -1.048782e+00
        48         2        3.136946e-01
        49         2        2.411637e+00
        50         2       -3.053962e-01
        51         2        8.201985e-01
        52         2        7.617318e-01
        53         2       -1.985160e+00
        54         2       -1.379011e-01
        55         2       -2.510609e+00
        56         2       -1.895227e-02
        57         2        1.549588e+00
        58         2       -3.900506e-01
        59         2        1.522586e+00
        60         2       -3.439950e-02
        61         2        4.731109e-01
        62         2       -4.823578e-01
        63         2       -3.618843e-01
        64         2        1.226891e+00
        65         2        1.068203e+00
        66         2        1.308243e-01
        67         2       -1.072941e+00
        68         2       -2.496325e-01
        69         2       -1.853447e-02
        70         2       -1.157246e+00
        71         2       -1.657745e+00
        72         2        1.776885e-01
        73         2       -5.763832e-01
        74         2        8.587828e-01
        75         2       -8.709171e-01
        76         2       -3.918831e-01
        77         2        1.815138e+00
        78         2       -8.559728e-01
        79         2        6.617974e-01
        80         2       -4.917384e-01
        81         2       -1.653509e+00
        82         2       -1.038184e+00
        83         2        2.412160e-01
        84         2       -5.164071e-02
        85         2        2.764933e+00
        86         2       -8.403479e-01
        87         2       -7.350987e-02
        88         2        9.687431e-02
        89         2        1.177313e+00
        90         2        4.528683e-02
        91         2        6.424026e-01
        92         2       -2.828884e-01
        93         2       -7.455025e-01
        94         2       -3.975056e-01
        95         2       -1.155379e+00
        96         2       -1.911476e-01
        97         2       -1.770387e+00
        98         2        4.665842e-01
        99         2       -3.480037e-01
       100         2       -5.364828e-01
         1         3       -1.016435e+00
         2         3       -1.765805e+00
         3         3       -1.846477e+00
         4         3       -5.392106e-01
         5         3       -3.217852e-01
         6         3        1.321291e+00
         7         3       -9.013368e-01
         8         3        1.833633e+00
         9         3        1.609145e-01
        10         3        3.403894e-01
        11         3       -2.371203e-01
        12         3       -2.241158e+00
        13         3        6.535857e-01
        14         3       -4.560450e-01
        15         3        8.010117e-01
        16         3       -5.184168e-01
        17         3        1.090257e+00
        18         3       -4.360002e-01
        19         3       -1.237011e+00
        20         3       -8.268325e-01
        21         3        1.141768e+00
        22         3       -8.605807e-02
        23         3       -4.840173e-01
        24         3       -1.272885e+00
        25         3        7.570681e-01
        26         3       -3.023587e-01
        27         3       -9.543938e-01
        28         3        5.308962e-01
        29         3       -1.237818e+00
        30         3       -4.763104e-02
        31         3       -1.188198e+00
        32         3        8.465749e-01
        33         3        2.114893e-01
        34         3        2.009486e+00
        35         3       -1.040301e+00
        36         3        1.882165e-01
        37         3        1.553369e-01
        38         3        9.788694e-01
        39         3       -4.115589e-01
        40         3        8.557041e-01
        41         3        1.625327e+00
        42         3        8.706355e-01
        43         3        8.011180e-01
        44         3       -9.764940e-01
        45         3       -1.848827e-01
        46         3       -2.164917e+00
        47         3       -3.341798e-01
        48         3        3.623316e-01
        49         3        6.002264e-01
        50         3        1.489726e-01
        51         3       -1.134625e+00
        52         3        9.374826e-01
        53         3       -4.976723e-01
        54         3       -9.576606e-01
        55         3        1.803503e+00
        56         3       -1.186491e+00
        57         3        8.610652e-01
        58         3       -8.034928e-01
        59         3        4.048131e-01
        60         3       -8.700818e-01
        61         3       -7.545386e-01
        62         3       -1.381543e-01
        63         3        9.442246e-01
        64         3        5.633963e-02
        65         3        1.583871e+00
        66         3        4.807305e-02
        67         3        2.844662e-02
        68         3        4.337568e-01
        69         3        8.149703e-01
        70         3        4.384562e-01
        71         3       -2.050945e+00
        72         3       -5.696811e-01
        73         3       -5.941000e-01
        74         3        7.388448e-01
        75         3        2.304611e-01
        76         3        1.426113e+00
        77         3        1.289015e-01
        78         3       -1.347671e+00
        79         3       -9.228703e-01
        80         3       -5.979379e-01
        81         3       -1.462120e+00
        82         3        5.801588e-01
        83         3        1.732141e-01
        84         3        9.005509e-01
        85         3        5.055388e-01
        86         3        2.958340e-01
        87         3        3.950388e-01
        88         3       -4.638165e-01
        89         3        1.148486e-01
        90         3        9.405597e-01
        91         3        7.659294e-01
        92         3        5.351143e-01
        93         3        2.143501e+00
        94         3       -5.529715e-01
        95         3       -4.610469e-01
        96         3        1.943049e+00
        97         3        7.166302e-01
        98         3        1.224626e-01
        99         3        1.627382e+00
       100         3       -2.271740e+00
         1         4       -8.929894e-01
         2         4       -8.828041e-01
         3         4       -2.057929e-01
         4         4        5.796704e-01
         5         4       -5.818966e-01
         6         4        2.644749e-01
         7         4        9.056088e-01
         8         4       -3.012269e-01
         9         4        2.278212e-01
        10         4        1.361696e+00
        11         4        6.021819e-01
        12         4       -1.564048e-01
        13         4       -1.420484e+00
        14         4       -9.594370e-01
        15         4        2.158877e+00
        16         4        6.472133e-01
        17         4        5.129610e-01
        18         4        1.743614e-01
        19         4       -8.432351e-01
        20         4       -1.442457e-01
        21         4        1.035361e+00
        22         4        1.868829e+00
        23         4        1.676232e+00
        24         4       -1.981424e+00
        25         4       -6.353116e-01
        26         4        1.142238e+00
        27         4        8.923053e-01
        28         4       -5.533044e-01
        29         4       -2.676191e-01
        30         4        1.898542e+00
        31         4       -5.878796e-01
        32         4       -2.132768e-01
        33         4        1.451766e-01
        34         4        2.359629e+00
        35         4       -7.068003e-01
        36         4        8.448471e-01
        37         4       -1.793101e+00
        38         4        1.016673e+00
        39         4       -8.161913e-01
        40         4        4.727904e-01
        41         4       -1.432431e+00
        42         4        1.715119e+00
        43         4       -3.935826e-01
        44         4       -3.951439e-02
        45         4       -9.589605e-01
        46         4        4.678448e-01
        47         4        3.267975e-01
        48         4       -1.001464e+00
        49         4        7.735125e-01
        50         4        4.547381e-01
        51         4        1.920051e+00
        52         4        1.842233e+00
        53         4        7.910207e-02
        54         4       -1.058130e+00
        55         4        1.281589e+00
        56         4       -3.803266e-01
        57         4        8.447562e-01
        58         4       -4.500436e-02
        59         4        2.386709e-01
        60         4       -4.855543e-01
        61         4        2.648193e+00
        62         4        2.241001e+00
        63         4        9.888632e-01
        64         4       -3.732564e-01
        65         4       -2.106550e-01
        66         4        6.242642e-01
        67         4        6.325365e-01
        68         4        3.779452e-01
        69         4       -4.090733e-01
        70         4        1.275090e+00
        71         4       -1.380922e+00
        72         4       -4.942420e-02
        73         4        1.680389e+00
        74         4       -4.877786e-01
        75         4        1.612565e+00
        76         4       -3.668872e-01
        77         4       -1.405332e-01
        78         4       -7.577495e-01
        79         4        4.378605e-01
        80         4        1.135164e+00
        81         4        1.118162e+00
        82         4        3.325053e-01
        83         4        2.027228e-01
        84         4       -1.293918e+00
        85         4        2.658568e-01
        86         4        2.929162e-01
        87         4       -2.042356e-01
        88         4        1.102681e+00
        89         4       -8.105966e-01
        90         4       -5.908957e-01
        91         4       -1.289796e+00
        92         4        2.095448e+00
        93         4       -1.872554e+00
        94         4        6.190696e-01
        95         4       -6.295379e-01
        96         4       -1.269365e-01
        97         4       -2.470890e-01
        98         4       -6.450607e-01
        99         4        2.110288e-01
       100         4       -9.991211e-03
         1         5        1.391010e+00
         2         5        8.027050e-01
         3         5        6.541303e-01
         4         5       -6.784298e-01
         5         5       -8.631214e-01
         6         5       -3.149517e-01
         7         5       -8.845554e-01
         8         5        6.753872e-01
         9         5       -7.922943e-02
        10         5       -1.509406e-01
        11         5       -2.938848e-01
        12         5        1.876734e-01
        13         5        1.235905e+00
        14         5        9.656571e-02
        15         5        1.120936e+00
        16         5        2.401139e+00
        17         5       -1.142730e+00
        18         5        1.061983e+00
        19         5       -1.899977e-01
        20         5        1.297886e+00
        21         5       -3.897529e-01
        22         5        6.984650e-02
        23         5       -9.049686e-01
        24         5       -7.686320e-01
        25         5        9.952849e-01
        26         5        8.236624e-02
        27         5        2.471395e-01
        28         5       -6.173673e-01
        29         5        9.075705e-01
        30         5        6.530018e-01
        31         5       -1.115388e+00
        32         5       -1.099492e+00
        33         5        1.439664e+00
        34         5        2.526938e-01
        35         5        1.706149e+00
        36         5       -2.578094e-01
        37         5       -2.568327e-01
        38         5        3.122931e-01
        39         5       -3.892048e-01
        40         5       -1.276312e+00
        41         5        2.804731e-01
        42         5        1.464292e+00
        43         5        1.925494e+00
        44         5       -9.051732e-01
        45         5        2.374407e-01
        46         5        1.448992e+00
        47         5        1.194803e+00
        48         5       -3.111666e-01
        49         5        5.509909e-01
        50         5       -1.614281e+00
        51         5        6.914069e-02
        52         5        1.424980e-01
        53         5       -2.465793e-01
        54         5        6.900774e-01
        55         5       -1.306082e-01
        56         5        4.761082e-01
        57         5       -1.647934e+00
        58         5       -9.477940e-01
        59         5        6.233867e-01
        60         5        1.890519e+00
        61         5       -1.109985e+00
        62         5       -1.065573e+00
        63         5        4.849730e-01
        64         5        2.563557e-01
        65         5        6.075459e-01
        66         5       -5.578028e-02
        67         5        1.492304e+00
        68         5       -1.296248e+00
        69         5        9.072901e-01
        70         5        1.662554e+00
        71         5       -1.956668e+00
        72         5       -5.486221e-01
        73         5        2.399717e+00
        74         5       -1.412849e+00
        75         5       -8.491432e-02
        76         5        1.801557e-01
        77         5       -1.149649e+00
        78         5       -5.632315e-01
        79         5        2.161229e-01
        80         5        2.605426e-02
        81         5       -1.878896e-01
        82         5       -1.561176e-01
        83         5        3.497816e-01
        84         5        5.986695e-01
        85         5       -6.601365e-01
        86         5        1.513922e+00
        87         5       -2.279008e+00
        88         5       -8.572991e-01
        89         5        6.559683e-01
        90         5        7.908292e-01
        91         5       -6.574817e-01
        92         5        2.070552e-01
        93         5       -3.791246e-01
        94         5        1.663710e+00
        95         5        1.302722e+00
        96         5       -3.407887e-01
        97         5        8.490920e-01
        98         5        2.206017e-02
        99         5       -1.507178e+00
       100         5        1.417408e-01
;

param theta:=
    1        1.307525e-01
    2        1.548810e+00
    3        9.616555e-01
    4       -7.739646e-01
    5       -1.143233e-01
;
param X_true:=
    1        7.598056e-01
    2        3.876122e-01
    3       -2.910807e+00
    4       -4.384836e-01
    5       -1.096785e+00
    6       -1.011425e+00
    7       -2.990448e+00
    8        2.157411e+00
    9        8.891212e-01
   10       -7.776100e-01
   11        1.567274e+00
   12       -4.073280e+00
   13        2.415109e+00
   14        7.585502e-02
   15        3.139139e-03
   16       -8.462463e-01
   17        3.273412e+00
   18        2.446001e+00
   19       -2.196815e+00
   20        2.984268e-01
   21       -2.126170e-01
   22        1.180142e+00
   23       -4.816756e+00
   24       -2.811308e+00
   25       -1.514508e-01
   26       -1.368284e+00
   27       -2.155938e+00
   28        3.141788e+00
   29       -2.724533e-01
   30       -5.298922e-01
   31       -3.312487e+00
   32       -3.408600e-01
   33        1.512576e+00
   34        1.773092e+00
   35       -9.869704e-01
   36        9.734022e-03
   37        2.584571e+00
   38        3.754291e+00
   39       -1.784697e+00
   40       -2.803255e+00
   41        3.430196e-01
   42       -2.902894e+00
   43        1.819137e+00
   44        1.787629e+00
   45       -1.267643e+00
   46       -5.615504e+00
   47       -2.349270e+00
   48        1.711564e+00
   49        3.760706e+00
   50       -4.486676e-01
   51       -1.295104e+00
   52        6.914917e-01
   53       -3.561740e+00
   54        8.001087e-02
   55       -3.328920e+00
   56       -7.138053e-01
   57        2.346059e+00
   58       -1.480615e+00
   59        2.495473e+00
   60       -8.662112e-01
   61       -2.174822e+00
   62       -2.617381e+00
   63       -4.820797e-01
   64        1.989625e+00
   65        3.204278e+00
   66       -1.752880e-01
   67       -2.201309e+00
   68       -4.791053e-02
   69        8.637109e-01
   70       -2.527415e+00
   71       -3.193110e+00
   72       -2.013194e-01
   73       -3.144448e+00
   74        2.644392e+00
   75       -2.285368e+00
   76        1.018243e+00
   77        3.070243e+00
   78       -1.909560e+00
   79       -5.221413e-02
   80       -2.341021e+00
   81       -4.737106e+00
   82       -1.404119e+00
   83        1.032976e-01
   84        1.581419e+00
   85        4.758658e+00
   86       -1.523543e+00
   87        8.436158e-01
   88       -7.714021e-01
   89        2.702059e+00
   90        1.335062e+00
   91        2.492248e+00
   92       -1.521120e+00
   93        2.289470e+00
   94       -1.947436e+00
   95       -1.736160e+00
   96        1.694047e+00
   97       -2.212099e+00
   98        1.331988e+00
   99        9.556210e-01
  100       -2.956958e+00
;
param X:=
    1        5.185149e-01
    2       -1.577304e-01
    3       -3.512608e-01
    4       -6.945699e-01
    5        3.884846e-01
    6       -2.958466e-01
    7        9.349335e-01
    8       -1.007751e+00
    9        2.313330e-02
   10        1.282117e+00
   11       -1.403739e+00
   12        1.021095e+00
   13       -7.548443e-01
   14       -1.696851e+00
   15        1.238671e-01
   16        2.979543e-01
   17       -6.565581e-01
   18       -6.227525e-01
   19        1.010044e+00
   20        2.984268e-01
   21        1.931429e+00
   22       -1.432484e-01
   23       -1.915473e-01
   24        4.471356e-01
   25        3.113953e-01
   26       -7.147014e-01
   27        1.820252e+00
   28       -9.048240e-01
   29       -2.069018e+00
   30       -3.837470e-01
   31        1.133069e+00
   32       -3.408600e-01
   33        8.930777e-01
   34       -9.778728e-01
   35       -1.572793e+00
   36        9.734022e-03
   37       -6.382976e-01
   38       -1.263828e+00
   39       -5.049564e-01
   40       -2.803255e+00
   41       -1.579736e+00
   42       -1.407933e+00
   43        1.819137e+00
   44        8.972376e-01
   45       -1.402494e+00
   46        1.623076e+00
   47       -5.673290e-01
   48        1.965695e-02
   49       -4.982329e-01
   50       -8.477601e-01
   51       -5.552086e-01
   52        6.914917e-01
   53       -1.825316e+00
   54        2.441041e-01
   55       -1.286217e+00
   56        4.100322e-01
   57        1.368430e+00
   58        5.120470e-01
   59        8.874579e-01
   60        1.460499e+00
   61        5.857370e-01
   62       -9.507946e-01
   63        3.614453e-02
   64        8.426399e-01
   65        1.175661e+00
   66        1.135100e+00
   67       -4.917580e-01
   68       -1.450146e-01
   69        6.105846e-01
   70       -1.472405e-01
   71       -2.258675e-02
   72       -1.805782e+00
   73        1.812652e+00
   74       -5.726516e-01
   75       -2.285368e+00
   76        9.314183e-01
   77       -7.761651e-01
   78       -7.950715e-01
   79        1.864822e-01
   80        9.197930e-01
   81       -1.644611e+00
   82       -6.052904e-01
   83        2.297980e+00
   84       -7.250417e-01
   85        3.237636e-01
   86       -2.376869e-01
   87        8.436158e-01
   88        1.724153e+00
   89        2.702059e+00
   90       -9.706753e-01
   91       -1.155316e-01
   92       -1.114023e+00
   93       -1.967163e-01
   94       -2.002144e-01
   95       -1.736160e+00
   96       -1.075640e+00
   97        6.290246e-02
   98       -3.757495e-01
   99       -1.272569e+00
  100       -9.330821e-01
;
param outliervec:=
    1    1
    2    1
    3    1
    4    1
    5    1
    6    1
    7    1
    8    1
    9    1
   10    1
   11    1
   12    1
   13    1
   14    1
   15    1
   16    1
   17    1
   18    1
   19    1
   20    0
   21    1
   22    1
   23    1
   24    1
   25    1
   26    1
   27    1
   28    1
   29    1
   30    1
   31    1
   32    0
   33    1
   34    1
   35    1
   36    0
   37    1
   38    1
   39    1
   40    0
   41    1
   42    1
   43    0
   44    1
   45    1
   46    1
   47    1
   48    1
   49    1
   50    1
   51    1
   52    0
   53    1
   54    1
   55    1
   56    1
   57    1
   58    1
   59    1
   60    1
   61    1
   62    1
   63    1
   64    1
   65    1
   66    1
   67    1
   68    1
   69    1
   70    1
   71    1
   72    1
   73    1
   74    1
   75    0
   76    1
   77    1
   78    1
   79    1
   80    1
   81    1
   82    1
   83    1
   84    1
   85    1
   86    1
   87    0
   88    1
   89    0
   90    1
   91    1
   92    1
   93    1
   94    1
   95    0
   96    1
   97    1
   98    1
   99    1
  100    1
;